res_glpk/4_14.log
GLPSOL--GLPK LP/MIP Solver 5.0
Parameter(s) specified in the command line:
 --lp ../modeles/4_14.lp --log 4_14.log
Reading problem data from '../modeles/4_14.lp'...
73 rows, 120 columns, 404 non-zeros
56 integer variables, all of which are binary
203 lines were read
GLPK Integer Optimizer 5.0
73 rows, 120 columns, 404 non-zeros
56 integer variables, all of which are binary
Preprocessing...
56 constraint coefficient(s) were reduced
73 rows, 116 columns, 400 non-zeros
56 integer variables, all of which are binary
Scaling...
 A: min|aij| =  8.163e-02  max|aij| =  4.000e+00  ratio =  4.900e+01
GM: min|aij| =  3.780e-01  max|aij| =  2.646e+00  ratio =  7.000e+00
EQ: min|aij| =  1.429e-01  max|aij| =  1.000e+00  ratio =  7.000e+00
2N: min|aij| =  1.250e-01  max|aij| =  1.361e+00  ratio =  1.089e+01
Constructing initial basis...
Size of triangular part is 73
Solving LP relaxation...
GLPK Simplex Optimizer 5.0
73 rows, 116 columns, 400 non-zeros
      0: obj =   8.000000000e+00 inf =   1.950e+01 (9)
     24: obj =  -1.596774194e+00 inf =   0.000e+00 (0)
*    51: obj =  -1.928571429e+00 inf =   0.000e+00 (0)
OPTIMAL LP SOLUTION FOUND
Integer optimization begins...
Long-step dual simplex will be used
+    51: mip =     not found yet >=              -inf        (1; 0)
+    56: >>>>>  -1.928571429e+00 >=  -1.928571429e+00   0.0% (4; 0)
+    56: mip =  -1.928571429e+00 >=     tree is empty   0.0% (0; 7)
INTEGER OPTIMAL SOLUTION FOUND
Time used:   0.0 secs
Memory used: 0.2 Mb (219708 bytes)
